NAME          COPTPROB
OBJSENSE
  MIN
ROWS
 N  __OBJ___
 L  C1      
 L  C23     
 L  C60     
 L  C81     
 L  C90     
 L  C110    
 L  C128    
 L  C135    
 L  C171    
 L  C174    
 L  C194    
 L  C196    
COLUMNS
    MARKER    'MARKER'                 'INTORG'
    x100      __OBJ___  28
    x100      C81       -1
    x100      C174      -1
    x394      __OBJ___  31
    x394      C81       -1
    x394      C171      -1
    x718      __OBJ___  15
    x718      C60       -1
    x718      C171      -1
    x794      __OBJ___  107
    x794      C90       -1
    x955      __OBJ___  14
    x955      C23       -1
    x1022     __OBJ___  40
    x1022     C110      -1
    x1022     C135      -1
    x1394     __OBJ___  56
    x1394     C128      -1
    x1469     __OBJ___  85
    x1469     C128      -1
    x1469     C135      -1
    x1616     __OBJ___  99
    x1616     C1        -1
    x1616     C196      -1
    x1755     __OBJ___  111
    x1755     C60       -1
    x1755     C90       -1
    x1808     __OBJ___  148
    x1808     C1        -1
    x1808     C90       -1
    x2127     __OBJ___  55
    x2127     C194      -1
    x2127     C196      -1
    x2231     __OBJ___  95
    x2231     C128      -1
    x2231     C194      -1
    x2388     __OBJ___  1
    x2388     C196      -1
    x2724     __OBJ___  22
    x2724     C23       -1
    x2724     C174      -1
    x3095     __OBJ___  31
    x3095     C23       -1
    x3095     C110      -1
    MARKER    'MARKER'                 'INTEND'
RHS
    RHS       __OBJ___  -5244
    RHS       C1        -1
    RHS       C23       -1
    RHS       C60       -1
    RHS       C81       -1
    RHS       C90       -1
    RHS       C110      -1
    RHS       C128      -1
    RHS       C135      -1
    RHS       C171      -1
    RHS       C174      -1
    RHS       C194      -1
    RHS       C196      -1
BOUNDS
 UP BOUND     x100      1
 UP BOUND     x394      1
 UP BOUND     x718      1
 UP BOUND     x794      1
 UP BOUND     x955      1
 UP BOUND     x1022     1
 UP BOUND     x1394     1
 UP BOUND     x1469     1
 UP BOUND     x1616     1
 UP BOUND     x1755     1
 UP BOUND     x1808     1
 UP BOUND     x2127     1
 UP BOUND     x2231     1
 UP BOUND     x2388     1
 UP BOUND     x2724     1
 UP BOUND     x3095     1
ENDATA
